data;

param num_top:=3;

#nodes and edges of the physical network
param n := 10;

set E := (1,2) (1,3) (1,7) (2,4) (2,7) (3,5) (4,8) (5,6) (5,7) (6,7) (6,9) (7,8) (7,9) (8,10) (9,10) ;

#nodes and edges of the virtual networks
set Nl[1] := 2 5 6 10 8 ;
set Nl[2] := 6 3 8 2 7 ;
set Nl[3] := 6 3 2 8 10 ;

set El[1] := (2,5) (5,6) (6,10) (8,10) (2,8) (6,8) (2,10) (2,6) (5,8) (5,10) ;
set El[2] := (3,6) (3,8) (2,8) (2,7) (6,7) (3,7) (6,8) (2,6) (2,3) (7,8) ;
set El[3] := (3,6) (2,3) (2,8) (8,10) (6,10) (3,10) (2,6) (2,10) (6,8) (3,8) ;
